============================[ Problem Statistics ]=============================|                                                                             ||  Number of variables:          4242                                         ||  Number of clauses:           10464                                         ||  Parse time:                   1.19 s                                       ||                                                                             |============================[ Search Statistics ]==============================| Conflicts |          ORIGINAL         |          LEARNT          | Progress ||           |    Vars  Clauses Literals |    Limit  Clauses Lit/Cl |          |===============================================================================|       100 |    1591     6669  1357780 |     2445      100     53 | 62.501 % ||       250 |    1591     6669  1357780 |     2689      250     75 | 62.495 % |===============================================================================restarts              : 4conflicts             : 458            (283 /sec)decisions             : 819            (0.00 % random) (506 /sec)propagations          : 13763          (8496 /sec)conflict literals     : 38903          (94.45 % deleted)CPU time              : 1.62 sSATISFIABLE